Translating instance to solver...

Set parameter TimeLimit to value 28800
Gurobi Optimizer version 11.0.2 build v11.0.2rc0 (linux64 - "Ubuntu 22.04.4 LTS")

CPU model: Intel(R) Xeon(R) Gold 5120 CPU @ 2.20GHz, instruction set [SSE2|AVX|AVX2|AVX512]
Thread count: 28 physical cores, 56 logical processors, using up to 28 threads

Academic license 2463511 - for non-commercial use only - registered to lu___@cefet-rj.br
Optimize a model with 181495 rows, 83733 columns and 404996 nonzeros
Model fingerprint: 0xf8ff9957
Variable types: 1 continuous, 83732 integer (83640 binary)
Coefficient statistics:
  Matrix range     [1e+00, 1e+05]
  Objective range  [3e-01, 8e-01]
  Bounds range     [1e+00, 8e+01]
  RHS range        [1e+00, 9e+01]
Presolve removed 148772 rows and 70390 columns
Presolve time: 3.59s
Presolved: 32723 rows, 13343 columns, 92847 nonzeros
Variable types: 0 continuous, 13343 integer (13252 binary)

Root relaxation: objective 1.529455e+00, 1032 iterations, 0.09 seconds (0.09 work units)

    Nodes    |    Current Node    |     Objective Bounds      |     Work
 Expl Unexpl |  Obj  Depth IntInf | Incumbent    BestBd   Gap | It/Node Time

     0     0    1.52946    0   18          -    1.52946      -     -    5s
H    0     0                       4.5706920    1.52946  66.5%     -    6s
     0     0    1.52946    0   83    4.57069    1.52946  66.5%     -    6s
H    0     0                       1.9794550    1.52946  22.7%     -    7s
     0     0    1.52946    0   83    1.97946    1.52946  22.7%     -    7s
     0     0    1.52946    0   68    1.97946    1.52946  22.7%     -    7s
     0     0    1.52946    0   21    1.97946    1.52946  22.7%     -    8s
     0     0    1.52946    0   20    1.97946    1.52946  22.7%     -    8s
     0     0    1.52946    0   27    1.97946    1.52946  22.7%     -    8s
H    0     0                       1.5294550    1.52946  0.00%     -    8s
     0     0    1.52946    0   28    1.52946    1.52946  0.00%     -    8s

Cutting planes:
  Learned: 35
  Gomory: 6
  Implied bound: 3
  MIR: 4
  StrongCG: 1
  Zero half: 2
  RLT: 3
  Relax-and-lift: 2

Explored 1 nodes (7496 simplex iterations) in 8.29 seconds (6.40 work units)
Thread count was 28 (of 56 available processors)

Solution count 3: 1.52946 1.97945 4.57069 

Optimal solution found (tolerance 1.00e-04)
Best objective 1.529455000000e+00, best bound 1.529455000000e+00, gap 0.0000%

Solver Wallclock Time (for this epsilon): 8.324007034301758 s
Python wallclock Time (for this epsilon): 23.299957036972046 s


Total Elapsed Time (since program call): 4100.0061140060425 s

Results:

I = 1.529455 mA
C = 17.0 points
C ~= 6.800000000000001 km^2

Minimum Epsilon for this instance = 10
Maximum Epsilon for this instance = 100

Current Epsilon = 10


Preprocessing Time (for this epsilon): 0.0164182186126709 s


Updated solution vectors:
sol_I = [-1.529455]
sol_C = [17.0]
sol_eps = [10]
sol_gap = [0.0]
